
Gurobi 9.1.2 (win64) logging started Fri Sep 24 04:01:18 2021

Changed value of parameter LogFile to ../results/logs/log_samuel_kroger_2021_09_24_02_00_25.csv_3_250.log
   Prev:   Default: 
Changed value of parameter method to 3
   Prev: -1  Min: -1  Max: 5  Default: -1
Gurobi Optimizer version 9.1.2 build v9.1.2rc0 (win64)
Thread count: 6 physical cores, 12 logical processors, using up to 12 threads
Optimize a model with 126944 rows, 393182 columns and 510678 nonzeros
Model fingerprint: 0x2db8bf3f
Variable types: 0 continuous, 393182 integer (393182 binary)
Coefficient statistics:
  Matrix range     [1e+00, 3e+00]
  Objective range  [1e+00, 1e+00]
  Bounds range     [1e+00, 1e+00]
  RHS range        [1e+00, 3e+02]
Found heuristic solution: objective 106417.00000
Presolve removed 118767 rows and 381575 columns
Presolve time: 0.42s
Presolved: 8177 rows, 11607 columns, 33883 nonzeros
Found heuristic solution: objective 106701.00000
Variable types: 0 continuous, 11607 integer (10855 binary)

Concurrent LP optimizer: primal simplex, dual simplex, and barrier
Showing barrier log only...

Root barrier log...

Ordering time: 0.00s

Barrier statistics:
 AA' NZ     : 2.050e+04
 Factor NZ  : 3.474e+04 (roughly 8 MBytes of memory)
 Factor Ops : 1.928e+05 (less than 1 second per iteration)
 Threads    : 1

                  Objective                Residual
Iter       Primal          Dual         Primal    Dual     Compl     Time
   0   1.65383457e+05  1.60525591e+05  1.74e+04 7.83e+00  1.47e+02     1s
   1   1.39109156e+05  2.07607158e+05  9.48e+03 2.13e-14  8.13e+01     1s
   2   1.09072778e+05  1.92363314e+05  2.88e+02 1.42e-14  4.91e+00     1s
   3   1.07934293e+05  1.23916478e+05  3.94e+01 4.26e-14  7.34e-01     1s
   4   1.07526276e+05  1.11790514e+05  6.59e-01 2.04e-14  1.39e-01     1s
   5   1.07757356e+05  1.09438019e+05  1.34e-01 1.08e-14  5.44e-02     1s
   6   1.07886129e+05  1.08762996e+05  7.46e-02 8.05e-15  2.84e-02     1s
   7   1.07991185e+05  1.08537173e+05  4.41e-02 6.22e-15  1.77e-02     1s
   8   1.08083775e+05  1.08365345e+05  1.56e-02 4.59e-15  9.09e-03     1s
   9   1.08116448e+05  1.08277168e+05  1.01e-02 2.93e-15  5.19e-03     1s
  10   1.08148017e+05  1.08239769e+05  5.06e-03 2.46e-15  2.96e-03     1s
  11   1.08166083e+05  1.08227774e+05  2.42e-03 2.95e-15  1.99e-03     1s
  12   1.08177791e+05  1.08200136e+05  8.91e-04 3.72e-15  7.21e-04     1s
  13   1.08185212e+05  1.08186424e+05  4.45e-05 4.77e-15  3.91e-05     1s
  14   1.08185853e+05  1.08185857e+05  1.19e-07 4.17e-15  1.14e-07     1s

Barrier performed 14 iterations in 0.68 seconds
Barrier solve interrupted - model solved by another algorithm


Solved with primal simplex

Root relaxation: objective 1.081859e+05, 6257 iterations, 0.12 seconds

    Nodes    |    Current Node    |     Objective Bounds      |     Work
 Expl Unexpl |  Obj  Depth IntInf | Incumbent    BestBd   Gap | It/Node Time

     0     0 108185.856    0 2002 106701.000 108185.856  1.39%     -    0s
H    0     0                    107011.00000 108185.856  1.10%     -    0s
H    0     0                    107012.00000 108185.856  1.10%     -    1s
H    0     0                    107023.00000 108184.523  1.09%     -    1s
H    0     0                    107037.00000 108184.523  1.07%     -    1s
     0     0 107401.680    0  752 107037.000 107401.680  0.34%     -    1s
H    0     0                    107099.00000 107401.680  0.28%     -    1s
H    0     0                    107209.00000 107401.680  0.18%     -    1s
     0     0 107349.415    0  487 107209.000 107349.415  0.13%     -    1s
     0     0 107344.589    0  472 107209.000 107344.589  0.13%     -    1s
     0     0 107344.539    0  473 107209.000 107344.539  0.13%     -    1s
H    0     0                    107261.00000 107344.539  0.08%     -    1s
H    0     0                    107288.00000 107344.539  0.05%     -    1s
     0     0 107303.276    0   44 107288.000 107303.276  0.01%     -    1s
     0     0 107302.943    0   35 107288.000 107302.943  0.01%     -    1s
H    0     0                    107295.00000 107302.943  0.01%     -    4s
H    0     0                    107296.00000 107302.943  0.01%     -    4s
H    0     0                    107298.00000 107302.943  0.00%     -    4s
H    0     0                    107299.00000 107302.943  0.00%     -    4s

Cutting planes:
  Gomory: 115
  Cover: 13
  Implied bound: 74
  MIR: 760
  StrongCG: 14
  GUB cover: 893
  Zero half: 59
  Mod-K: 2
  RLT: 24
  Relax-and-lift: 3

Explored 1 nodes (8924 simplex iterations) in 4.71 seconds
Thread count was 12 (of 12 available processors)

Solution count 10: 107299 107298 107296 ... 107023

Optimal solution found (tolerance 1.00e-04)
Best objective 1.072990000000e+05, best bound 1.073029426236e+05, gap 0.0037%

Gurobi 9.1.2 (win64) logging started Fri Sep 24 04:03:57 2021

Changed value of parameter LogFile to ../results/logs/log_samuel_kroger_2021_09_24_02_00_25.csv_3_250.log
   Prev:   Default: 
Changed value of parameter method to 3
   Prev: -1  Min: -1  Max: 5  Default: -1
Gurobi Optimizer version 9.1.2 build v9.1.2rc0 (win64)
Thread count: 6 physical cores, 12 logical processors, using up to 12 threads
Optimize a model with 226052 rows, 634160 columns and 839284 nonzeros
Model fingerprint: 0x95967484
Variable types: 0 continuous, 634160 integer (634160 binary)
Coefficient statistics:
  Matrix range     [1e+00, 3e+00]
  Objective range  [1e+00, 1e+00]
  Bounds range     [1e+00, 1e+00]
  RHS range        [1e+00, 3e+02]
Found heuristic solution: objective 204031.00000
Presolve removed 217833 rows and 621821 columns
Presolve time: 0.66s
Presolved: 8219 rows, 12339 columns, 35697 nonzeros
Found heuristic solution: objective 204282.00000
Variable types: 0 continuous, 12339 integer (11212 binary)

Concurrent LP optimizer: primal simplex, dual simplex, and barrier
Showing barrier log only...

Root barrier log...

Ordering time: 0.00s

Barrier statistics:
 AA' NZ     : 2.055e+04
 Factor NZ  : 3.482e+04 (roughly 9 MBytes of memory)
 Factor Ops : 1.931e+05 (less than 1 second per iteration)
 Threads    : 1

                  Objective                Residual
Iter       Primal          Dual         Primal    Dual     Compl     Time
   0   2.63935656e+05  2.71882984e+05  2.01e+04 7.73e+00  1.53e+02     1s
   1   2.33628949e+05  3.17440038e+05  9.70e+03 1.42e-14  7.51e+01     1s
   2   2.06757074e+05  2.97435040e+05  3.58e+02 1.78e-14  5.22e+00     1s
   3   2.05469108e+05  2.21799747e+05  5.50e+01 2.66e-14  7.81e-01     1s
   4   2.05006822e+05  2.09397463e+05  3.36e+00 2.71e-14  1.44e-01     1s
   5   2.05165044e+05  2.06932904e+05  8.51e-01 2.09e-14  5.53e-02     1s
   6   2.05279400e+05  2.06291496e+05  5.27e-01 1.06e-14  3.15e-02     1s
   7   2.05403855e+05  2.05989206e+05  3.23e-01 5.27e-15  1.82e-02     1s
   8   2.05486390e+05  2.05851466e+05  1.58e-01 3.89e-15  1.13e-02     1s
   9   2.05524078e+05  2.05762942e+05  1.12e-01 3.50e-15  7.38e-03     1s
  10   2.05564726e+05  2.05721300e+05  6.84e-02 3.15e-15  4.83e-03     1s
  11   2.05576930e+05  2.05703372e+05  5.81e-02 2.85e-15  3.90e-03     1s
  12   2.05588688e+05  2.05680556e+05  4.80e-02 3.48e-15  2.84e-03     1s
  13   2.05647216e+05  2.05651652e+05  5.17e-04 4.48e-15  1.36e-04     1s
  14   2.05650314e+05  2.05650332e+05  6.68e-13 3.81e-15  5.28e-07     1s
  15   2.05650324e+05  2.05650324e+05  7.46e-13 3.33e-15  1.47e-10     1s

Barrier solved model in 15 iterations and 0.98 seconds
Optimal objective 2.05650324e+05


Solved with barrier

Root relaxation: objective 2.056503e+05, 2580 iterations, 0.15 seconds

    Nodes    |    Current Node    |     Objective Bounds      |     Work
 Expl Unexpl |  Obj  Depth IntInf | Incumbent    BestBd   Gap | It/Node Time

     0     0 205650.324    0 2004 204282.000 205650.324  0.67%     -    1s
H    0     0                    204577.00000 205650.324  0.52%     -    1s
H    0     0                    204580.00000 205650.324  0.52%     -    1s
H    0     0                    204595.00000 205650.324  0.52%     -    1s
     0     0 204986.852    0  868 204595.000 204986.852  0.19%     -    1s
H    0     0                    204633.00000 204986.852  0.17%     -    1s
H    0     0                    204750.00000 204986.852  0.12%     -    1s
     0     0 204923.164    0  638 204750.000 204923.164  0.08%     -    2s
     0     0 204918.319    0  618 204750.000 204918.319  0.08%     -    2s
     0     0 204918.043    0  620 204750.000 204918.043  0.08%     -    2s
H    0     0                    204764.00000 204918.043  0.08%     -    2s
H    0     0                    204833.00000 204918.043  0.04%     -    2s
     0     0 204868.625    0  119 204833.000 204868.625  0.02%     -    2s
H    0     0                    204834.00000 204868.625  0.02%     -    2s
     0     0 204866.900    0  104 204834.000 204866.900  0.02%     -    2s
     0     0 204862.233    0   91 204834.000 204862.233  0.01%     -    2s
H    0     0                    204847.00000 204862.233  0.01%     -    3s

Cutting planes:
  Gomory: 170
  Cover: 14
  Implied bound: 53
  MIR: 951
  StrongCG: 20
  GUB cover: 836
  Zero half: 67
  RLT: 34
  Relax-and-lift: 7

Explored 1 nodes (6477 simplex iterations) in 3.07 seconds
Thread count was 12 (of 12 available processors)

Solution count 10: 204847 204834 204833 ... 204282

Optimal solution found (tolerance 1.00e-04)
Best objective 2.048470000000e+05, best bound 2.048620000000e+05, gap 0.0073%
